NAME          ClpDefau  FREE
ROWS
 N  OBJROW
 L  ZMUNI1_PCT
 L  ZMUNI2_PCT
 L  ZMUNI3_PCT
 L  ZMUNI4_PCT
 L  ZMUNI5_PCT
 L  ZMUNI6_PCT
 L  ZMUNI7_PCT
 L  ZMUNI8_PCT
 L  ZMUNI9_PCT
COLUMNS
    QMUNI1 OBJROW 1.          
    QMUNI1 ZMUNI1_PCT 28401.8517  
    QMUNI1 ZMUNI2_PCT 1829.1473   
    QMUNI1 ZMUNI3_PCT 4291.3437   
    QMUNI1 ZMUNI4_PCT 3137.20703  
    QMUNI1 ZMUNI5_PCT  -23.0789   
    QMUNI1 ZMUNI6_PCT 175.19      
    QMUNI1 ZMUNI7_PCT 1644.8975   
    QMUNI1 ZMUNI8_PCT 1347.9233   
    QMUNI1 ZMUNI9_PCT 554.657     
    QMUNI2 OBJROW 1.          
    QMUNI2 ZMUNI1_PCT 1590.0612   
    QMUNI2 ZMUNI2_PCT 33409.0233  
    QMUNI2 ZMUNI3_PCT 2407.2647   
    QMUNI2 ZMUNI4_PCT 2554.03519  
    QMUNI2 ZMUNI5_PCT  -118.6371  
    QMUNI2 ZMUNI6_PCT  -46.73     
    QMUNI2 ZMUNI7_PCT 684.1659    
    QMUNI2 ZMUNI8_PCT 924.3012    
    QMUNI2 ZMUNI9_PCT 780.6778    
    QMUNI3 OBJROW 1.          
    QMUNI3 ZMUNI1_PCT 4057.4074   
    QMUNI3 ZMUNI2_PCT 2549.9344   
    QMUNI3 ZMUNI3_PCT 29867.7444  
    QMUNI3 ZMUNI4_PCT 4972.1241   
    QMUNI3 ZMUNI5_PCT  -271.7972  
    QMUNI3 ZMUNI6_PCT  -74.1958   
    QMUNI3 ZMUNI7_PCT 1327.8961   
    QMUNI3 ZMUNI8_PCT 1278.4958   
    QMUNI3 ZMUNI9_PCT 576.21      
    QMUNI4 OBJROW 1.          
    QMUNI4 ZMUNI1_PCT 3669.262    
    QMUNI4 ZMUNI2_PCT 3373.5275   
    QMUNI4 ZMUNI3_PCT 5867.7673   
    QMUNI4 ZMUNI4_PCT 104565.62042
    QMUNI4 ZMUNI5_PCT 229.454     
    QMUNI4 ZMUNI6_PCT 408.1726    
    QMUNI4 ZMUNI7_PCT 1822.0901   
    QMUNI4 ZMUNI8_PCT 1874.3515   
    QMUNI4 ZMUNI9_PCT 1402.4735   
    QMUNI5 OBJROW 1.          
    QMUNI5 ZMUNI1_PCT 79.7272     
    QMUNI5 ZMUNI2_PCT 4.5776      
    QMUNI5 ZMUNI3_PCT 42.9153     
    QMUNI5 ZMUNI4_PCT 12.82692    
    QMUNI5 ZMUNI5_PCT 33607.4829  
    QMUNI5 ZMUNI6_PCT 2450.0847   
    QMUNI5 ZMUNI7_PCT 111.3892    
    QMUNI5 ZMUNI8_PCT 32.4249     
    QMUNI5 ZMUNI9_PCT  -32.0434   
    QMUNI6 OBJROW 1.          
    QMUNI6 ZMUNI1_PCT 337.0285    
    QMUNI6 ZMUNI2_PCT 126.8387    
    QMUNI6 ZMUNI3_PCT 256.5384    
    QMUNI6 ZMUNI4_PCT 193.88199   
    QMUNI6 ZMUNI5_PCT 2750.9689   
    QMUNI6 ZMUNI6_PCT 31712.6274  
    QMUNI6 ZMUNI7_PCT 493.6218    
    QMUNI6 ZMUNI8_PCT 248.1461    
    QMUNI6 ZMUNI9_PCT 53.0243     
    QMUNI7 OBJROW 1.          
    QMUNI7 ZMUNI1_PCT 1597.9767   
    QMUNI7 ZMUNI2_PCT 990.2954    
    QMUNI7 ZMUNI3_PCT 1434.7076   
    QMUNI7 ZMUNI4_PCT 1098.63281  
    QMUNI7 ZMUNI5_PCT 271.4157    
    QMUNI7 ZMUNI6_PCT 500.7744    
    QMUNI7 ZMUNI7_PCT 29731.9412  
    QMUNI7 ZMUNI8_PCT 2611.1603   
    QMUNI7 ZMUNI9_PCT 1014.1373   
    QMUNI8 OBJROW 1.          
    QMUNI8 ZMUNI1_PCT 1461.3152   
    QMUNI8 ZMUNI2_PCT 1235.5804   
    QMUNI8 ZMUNI3_PCT 1478.5766   
    QMUNI8 ZMUNI4_PCT 1181.50711  
    QMUNI8 ZMUNI5_PCT 468.6355    
    QMUNI8 ZMUNI6_PCT 566.0057    
    QMUNI8 ZMUNI7_PCT 2833.7479   
    QMUNI8 ZMUNI8_PCT 28232.5745  
    QMUNI8 ZMUNI9_PCT 1648.5214   
    QMUNI9 OBJROW 1.          
    QMUNI9 ZMUNI1_PCT 615.2153    
    QMUNI9 ZMUNI2_PCT 868.988     
    QMUNI9 ZMUNI3_PCT 705.719     
    QMUNI9 ZMUNI4_PCT 628.80516   
    QMUNI9 ZMUNI5_PCT 53.0243     
    QMUNI9 ZMUNI6_PCT 97.7516     
    QMUNI9 ZMUNI7_PCT 698.6618    
    QMUNI9 ZMUNI8_PCT 1197.052    
    QMUNI9 ZMUNI9_PCT 26019.2871  
RHS
    RHS ZMUNI1_PCT 0.1867959551
    RHS ZMUNI2_PCT 0.0938519719
    RHS ZMUNI3_PCT -0.065947475
    RHS ZMUNI4_PCT  -0.30821899
    RHS ZMUNI5_PCT -0.04215311 
    RHS ZMUNI6_PCT 0.0569626264
    RHS ZMUNI7_PCT -0.004130314
    RHS ZMUNI8_PCT -0.064181502
    RHS ZMUNI9_PCT  -0.12457362
BOUNDS
 LO BOUND QMUNI1 -0.000998467
 UP BOUND QMUNI1      1.1e+10
 LO BOUND QMUNI2 -0.000690415
 UP BOUND QMUNI2      1.1e+10
 LO BOUND QMUNI3 -0.000724232
 UP BOUND QMUNI3      1.1e+10
 LO BOUND QMUNI4 -0.000284797
 UP BOUND QMUNI4      1.1e+10
 LO BOUND QMUNI5 -0.000533545
 UP BOUND QMUNI5      1.1e+10
 LO BOUND QMUNI6 -0.000711762
 UP BOUND QMUNI6      1.1e+10
 LO BOUND QMUNI7 -0.000323104
 UP BOUND QMUNI7      1.1e+10
 LO BOUND QMUNI8 -0.000442659
 UP BOUND QMUNI8      1.1e+10
 LO BOUND QMUNI9 -0.000517766
 UP BOUND QMUNI9      1.1e+10
ENDATA
